[VALIDATOR STDOUT]
Checking plan: /home/fjl2401/Safety-gen/benchmark_problems/rovers/optic_results/rover1_waypoint4_objective2_camera2_goal2_seed4002.plan
Plan executed successfully - checking goal
Goal not satisfied
Plan invalid


Failed plans:
 /home/fjl2401/Safety-gen/benchmark_problems/rovers/optic_results/rover1_waypoint4_objective2_camera2_goal2_seed4002.plan
